p tw 31 35
1 2
2 13
3 4
4 5
5 21
6 7
7 8
8 21
9 10
10 11
11 12
12 14
13 24
14 15
15 21
16 17
17 18
18 19
19 20
20 21
21 22
22 23
23 25
24 26
26 27
27 28
27 21
28 29
29 30
29 21
30 31
31 3
31 6
31 9
31 16
